32      2       
12      17      
0       0       0       3       2       3       4       
5       0       7       3       5       6       24      
6       0       5       1       21      
5       8       0       1       19      
10      0       4       3       8       9       12      
6       3       0       2       7       30      
6       0       4       2       11      13      
1       6       0       3       10      21      28      
9       0       4       1       29      
8       2       0       2       14      19      
4       7       0       2       15      23      
1       9       0       2       14      15      
3       3       0       1       15      
1       0       10      1       16      
2       0       2       2       17      25      
8       1       0       2       22      30      
1       0       6       1       18      
5       0       3       3       20      22      31      
1       0       1       1       20      
6       4       0       1       29      
8       0       2       1       26      
7       0       5       1       29      
4       0       10      1       27      
7       3       0       1       27      
3       1       0       1       27      
3       1       0       1       30      
7       0       8       1       28      
1       1       0       1       31      
4       7       0       1       32      
7       7       0       1       32      
7       0       4       1       32      
0       0       0       0       